Route #1: 7 26 63 60 37 3
Route #2: 8 36 57 44 23 14 35 52
Route #3: 30 15 40 22 4 61 5 16 6 28
Route #4: 42 2 50 25 13 10
Route #5: 46 32 39 20 58 12 24 19
Route #6: 49 45 65 64 47 27 11
Route #7: 51 29 38 17 62 48 31
Route #8: 56 18 21 55 54 53
Route #9: 59 33 41 9 66 34 43
cost 1368